data;

set A := 636 484 486 472 436 522 200 210 794 854 358 656 220 892 612 336 266 772 886 80 128 722 538 426 110 964 568 940 894 996 236 748 320 552 328 512 74 906 118 694 288 504 468 24 340 32 838 192 702 122 836 718 10 264 542 698 348 216 246 866 206 506 30 362 640 268 982 194 874 100 524 954 650 546 330 576 916 936 162 16 12 72 990 652;
param T := 21000;

end;
